peakDumbCharging = 11100; 
Machine = anon_enum(16); 
machineSpeed = [3700,3700,3700,3700,3700,3700,3700,3700,3700,3700,3700,3700,3700,3700,3700,3700]; 
machineLoad = [3700,3700,3700,3700,3700,3700,3700,3700,3700,3700,3700,3700,3700,3700,3700,3700]; 
Car = anon_enum(11); 
demandCar = [5640,9880,35320,3160,11600,6880,8440,2800,24920,17880,16440]; 
arrivalCar = [66,65,60,58,58,52,49,48,42,35,23]; 
departureCar = [69,69,79,60,66,57,59,50,63,42,60]; 
